Nodes = {"N1", "N2", "N3", "N4", "N5", "N6", "N7", "N8", "N9", "N10", "N11"};
Arcs = {<"N1","N2",10,13,0>, <"N1","N3",10,22,0>, <"N1","N4",10,25,0>, <"N1","N5",10,29,0>, <"N1","N6",10,18,0>, <"N1","N7",10,11,1>, <"N1","N8",10,9,1>, <"N1","N9",10,2,1>, <"N1","N10",10,17,1>, <"N1","N11",10,20,0>, <"N2","N1",10,13,0>, <"N2","N3",10,1,1>, <"N2","N4",10,3,1>, <"N2","N5",10,13,1>, <"N2","N6",10,8,1>, <"N2","N7",10,28,0>, <"N2","N8",10,16,1>, <"N2","N9",10,6,1>, <"N2","N10",10,5,1>, <"N2","N11",10,4,1>, <"N3","N1",10,22,0>, <"N3","N2",10,1,1>, <"N3","N4",10,1,1>, <"N3","N5",10,10,1>, <"N3","N6",10,8,1>, <"N3","N7",10,35,0>, <"N3","N8",10,21,0>, <"N3","N9",10,12,0>, <"N3","N10",10,8,1>, <"N3","N11",10,5,1>, <"N4","N1",10,25,0>, <"N4","N2",10,3,1>, <"N4","N3",10,1,1>, <"N4","N5",10,5,1>, <"N4","N6",10,4,1>, <"N4","N7",10,31,0>, <"N4","N8",10,17,0>, <"N4","N9",10,14,0>, <"N4","N10",10,14,0>, <"N4","N11",10,11,0>, <"N5","N1",10,29,0>, <"N5","N2",10,13,1>, <"N5","N3",10,10,1>, <"N5","N4",10,5,1>, <"N5","N6",10,2,1>, <"N5","N7",10,21,1>, <"N5","N8",10,11,1>, <"N5","N9",10,21,0>, <"N5","N10",10,33,0>, <"N5","N11",10,29,0>, <"N6","N1",10,18,0>, <"N6","N2",10,8,1>, <"N6","N3",10,8,1>, <"N6","N4",10,4,1>, <"N6","N5",10,2,1>, <"N6","N7",10,14,0>, <"N6","N8",10,5,1>, <"N6","N9",10,11,1>, <"N6","N10",10,24,0>, <"N6","N11",10,22,0>, <"N7","N1",10,11,1>, <"N7","N2",10,28,0>, <"N7","N3",10,35,0>, <"N7","N4",10,31,0>, <"N7","N5",10,21,1>, <"N7","N6",10,14,0>, <"N7","N8",10,2,1>, <"N7","N9",10,14,1>, <"N7","N10",10,46,1>, <"N7","N11",10,47,1>, <"N8","N1",10,9,1>, <"N8","N2",10,16,1>, <"N8","N3",10,21,0>, <"N8","N4",10,17,0>, <"N8","N5",10,11,1>, <"N8","N6",10,5,1>, <"N8","N7",10,2,1>, <"N8","N9",10,9,1>, <"N8","N10",10,33,1>, <"N8","N11",10,32,1>, <"N9","N1",10,2,1>, <"N9","N2",10,6,1>, <"N9","N3",10,12,0>, <"N9","N4",10,14,0>, <"N9","N5",10,21,0>, <"N9","N6",10,11,1>, <"N9","N7",10,14,1>, <"N9","N8",10,9,1>, <"N9","N10",10,10,1>, <"N9","N11",10,11,1>, <"N10","N1",10,17,1>, <"N10","N2",10,5,1>, <"N10","N3",10,8,1>, <"N10","N4",10,14,0>, <"N10","N5",10,33,0>, <"N10","N6",10,24,0>, <"N10","N7",10,46,1>, <"N10","N8",10,33,1>, <"N10","N9",10,10,1>, <"N10","N11",10,0,1>, <"N11","N1",10,20,0>, <"N11","N2",10,4,1>, <"N11","N3",10,5,1>, <"N11","N4",10,11,0>, <"N11","N5",10,29,0>, <"N11","N6",10,22,0>, <"N11","N7",10,47,1>, <"N11","N8",10,32,1>, <"N11","N9",10,11,1>, <"N11","N10",10,0,1>};
Demands = {<"N1","N2",10>, <"N1","N3",20>, <"N1","N4",30>, <"N1","N5",40>, <"N1","N6",50>, <"N1","N7",60>, <"N1","N8",70>, <"N1","N9",80>, <"N1","N10",90>, <"N1","N11",100>, <"N2","N1",10>, <"N2","N3",10>, <"N2","N4",20>, <"N2","N5",30>, <"N2","N6",40>, <"N2","N7",50>, <"N2","N8",60>, <"N2","N9",70>, <"N2","N10",80>, <"N2","N11",90>, <"N3","N1",20>, <"N3","N2",10>, <"N3","N4",10>, <"N3","N5",20>, <"N3","N6",30>, <"N3","N7",40>, <"N3","N8",50>, <"N3","N9",60>, <"N3","N10",70>, <"N3","N11",80>, <"N4","N1",30>, <"N4","N2",20>, <"N4","N3",10>, <"N4","N5",10>, <"N4","N6",20>, <"N4","N7",30>, <"N4","N8",40>, <"N4","N9",50>, <"N4","N10",60>, <"N4","N11",70>, <"N5","N1",40>, <"N5","N2",30>, <"N5","N3",20>, <"N5","N4",10>, <"N5","N6",10>, <"N5","N7",20>, <"N5","N8",30>, <"N5","N9",40>, <"N5","N10",50>, <"N5","N11",60>, <"N6","N1",50>, <"N6","N2",40>, <"N6","N3",30>, <"N6","N4",20>, <"N6","N5",10>, <"N6","N7",10>, <"N6","N8",20>, <"N6","N9",30>, <"N6","N10",40>, <"N6","N11",50>, <"N7","N1",60>, <"N7","N2",50>, <"N7","N3",40>, <"N7","N4",30>, <"N7","N5",20>, <"N7","N6",10>, <"N7","N8",10>, <"N7","N9",20>, <"N7","N10",30>, <"N7","N11",40>, <"N8","N1",70>, <"N8","N2",60>, <"N8","N3",50>, <"N8","N4",40>, <"N8","N5",30>, <"N8","N6",20>, <"N8","N7",10>, <"N8","N9",10>, <"N8","N10",20>, <"N8","N11",30>, <"N9","N1",80>, <"N9","N2",70>, <"N9","N3",60>, <"N9","N4",50>, <"N9","N5",40>, <"N9","N6",30>, <"N9","N7",20>, <"N9","N8",10>, <"N9","N10",10>, <"N9","N11",20>, <"N10","N1",90>, <"N10","N2",80>, <"N10","N3",70>, <"N10","N4",60>, <"N10","N5",50>, <"N10","N6",40>, <"N10","N7",30>, <"N10","N8",20>, <"N10","N9",10>, <"N10","N11",10>, <"N11","N1",100>, <"N11","N2",90>, <"N11","N3",80>, <"N11","N4",70>, <"N11","N5",60>, <"N11","N6",50>, <"N11","N7",40>, <"N11","N8",30>, <"N11","N9",20>, <"N11","N10",10>};
